95 300 139 102 117 103 145 111 112 110 101 109 133 111 142 147 120 148 103 135 148 106 127 113 131 125 140 124 129 138 118 121 111 106 148 102 134 143 114 146 127 140 129 135 126 145 105 146 116 108 130 113 115 131 101 146 105 115 144 135 102 111 130 113 142 128 141 125 145 129 145 121 118 148 130 118 142 136 113 132 144 143 120 133 123 121 103 103 136 147 112 113 108 142 100 150 119 